* ENCODING=ISO-8859-1
NAME          CPLEX
ROWS
 N  obj1    
 G  c1      
 G  c2      
 G  c3      
 G  c4      
 G  c5      
 G  c6      
 G  c7      
 G  c8      
 G  c9      
 G  c10     
 G  c11     
 G  c12     
 G  c13     
 G  c14     
 G  c15     
 G  c16     
 G  c17     
 G  c18     
 G  c19     
 G  c20     
 G  c21     
 G  c22     
 G  c23     
 G  c24     
 G  c25     
 G  c26     
 G  c27     
 G  c28     
 G  c29     
 G  c30     
COLUMNS
    MARK0000  'MARKER'                 'INTORG'
    x1        obj1                            1
    x1        c22                           199
    x2        obj1                            1
    x2        c12                           828
    x2        c20                           989
    x2        c29                           378
    x3        obj1                            1
    x3        c25                           436
    x3        c29                           231
    x4        obj1                            1
    x4        c3                            326
    x4        c4                            508
    x5        obj1                            1
    x5        c5                            595
    x6        obj1                            1
    x6        c8                            714
    x6        c13                           887
    x6        c28                           129
    x7        obj1                            1
    x7        c4                            855
    x7        c19                           252
    x7        c22                           120
    x7        c24                           269
    x7        c25                           920
    x8        obj1                            1
    x8        c18                           227
    x8        c20                           210
    x9        obj1                            1
    x9        c5                            378
    x9        c6                            276
    x9        c23                           226
    x10       obj1                            1
    x10       c4                            516
    x10       c7                            240
    x10       c18                           629
    x11       obj1                            1
    x11       c3                            578
    x11       c11                           976
    x11       c18                           674
    x11       c21                           280
    x11       c27                           154
    x11       c30                           120
    x12       obj1                            1
    x12       c18                           968
    x12       c28                           266
    x13       obj1                            1
    x13       c1                            545
    x13       c4                            484
    x13       c18                           566
    x13       c26                           773
    x13       c29                           426
    x14       obj1                            1
    x14       c2                            183
    x14       c5                            264
    x14       c8                            273
    x15       obj1                            1
    x15       c3                            841
    x15       c13                           592
    x16       obj1                            1
    x16       c2                            318
    x16       c9                            971
    x16       c16                           917
    x16       c19                           875
    x16       c27                           846
    x17       obj1                            1
    x17       c1                            386
    x17       c4                            141
    x17       c10                           712
    x17       c14                           746
    x17       c19                           147
    x17       c20                           810
    x18       obj1                            1
    x18       c4                            603
    x18       c29                           932
    x19       obj1                            1
    x19       c2                            839
    x19       c5                            796
    x19       c7                            580
    x19       c29                           909
    x20       obj1                            1
    x20       c7                            806
    x20       c9                            741
    x20       c19                           210
    x20       c24                           915
    x20       c26                           979
    x21       obj1                            1
    x21       c8                            122
    x22       obj1                            1
    x22       c5                            170
    x23       obj1                            1
    x23       c12                           903
    x23       c27                           437
    x24       obj1                            1
    x24       c2                            761
    x24       c5                            358
    x24       c16                           972
    x24       c21                           380
    x25       obj1                            1
    x25       c4                            264
    x26       obj1                            1
    x26       c13                           700
    x26       c15                           468
    x26       c25                           157
    x26       c28                           850
    x26       c29                           226
    x27       obj1                            1
    x27       c25                           885
    x28       obj1                            1
    x28       c20                           947
    x28       c27                           395
    x28       c28                           377
    x29       obj1                            1
    x29       c11                           263
    x30       obj1                            1
    x30       c6                            249
    x30       c22                           395
    x31       obj1                            1
    x31       c14                           172
    x31       c15                           469
    x32       obj1                            1
    x32       c4                            795
    x33       obj1                            1
    x33       c5                            193
    x33       c17                           604
    x33       c18                           237
    x34       obj1                            1
    x34       c2                            261
    x34       c3                            172
    x34       c25                           470
    x35       obj1                            1
    x35       c10                           866
    x36       obj1                            1
    x36       c2                            700
    x36       c4                            580
    x36       c8                            196
    x36       c21                           214
    x36       c22                           635
    x36       c26                           269
    x37       obj1                            1
    x37       c7                            768
    x37       c30                           845
    x38       obj1                            1
    x38       c6                            107
    x38       c7                            222
    x38       c14                           119
    x38       c23                           210
    x39       obj1                            1
    x39       c6                            979
    x39       c20                           697
    x39       c28                           452
    x40       obj1                            1
    x40       c13                           259
    x40       c22                           332
    x41       obj1                            1
    x41       c6                            626
    x41       c23                           530
    x41       c28                           363
    x41       c29                           877
    x42       obj1                            1
    x42       c11                           246
    x42       c15                           869
    x42       c20                           675
    x42       c25                           854
    x43       obj1                            1
    x43       c22                           843
    x43       c24                           818
    x44       obj1                            1
    x44       c6                            812
    x44       c18                           742
    x45       obj1                            1
    x45       c19                           178
    x45       c27                           785
    x46       obj1                            1
    x47       obj1                            1
    x47       c5                            757
    x47       c6                            418
    x47       c9                            751
    x47       c19                           331
    x48       obj1                            1
    x48       c12                           859
    x48       c16                           911
    x49       obj1                            1
    x49       c1                            723
    x49       c6                            967
    x49       c14                           650
    x49       c17                           828
    x49       c25                           913
    x50       obj1                            1
    x51       obj1                            1
    x51       c2                            340
    x51       c30                           271
    x52       obj1                            1
    x52       c3                            470
    x52       c23                           771
    x52       c26                           790
    x52       c27                           648
    x52       c28                           401
    x53       obj1                            1
    x53       c8                            838
    x53       c18                           243
    x53       c20                           600
    x53       c21                           221
    x54       obj1                            1
    x54       c17                           357
    x55       obj1                            1
    x55       c19                           274
    x55       c25                           664
    x56       obj1                            1
    x56       c2                            879
    x56       c3                            969
    x56       c7                            544
    x56       c22                           928
    x56       c26                           133
    x57       obj1                            1
    x57       c5                            489
    x57       c13                           943
    x57       c14                           421
    x57       c15                           420
    x57       c27                           694
    x58       obj1                            1
    x58       c10                           960
    x59       obj1                            1
    x59       c10                           982
    x59       c24                           555
    x59       c29                           225
    x60       obj1                            1
    x60       c2                            202
    x60       c3                            788
    x60       c10                           741
    x60       c23                           338
    MARK0001  'MARKER'                 'INTEND'
RHS
    rhs       c1                            827
    rhs       c2                           2242
    rhs       c3                           2072
    rhs       c4                           2373
    rhs       c5                           2000
    rhs       c6                           2217
    rhs       c7                           1580
    rhs       c8                           1072
    rhs       c9                           1232
    rhs       c10                          2131
    rhs       c11                           743
    rhs       c12                          1295
    rhs       c13                          1691
    rhs       c14                          1054
    rhs       c15                          1113
    rhs       c16                          1400
    rhs       c17                           895
    rhs       c18                          2143
    rhs       c19                          1134
    rhs       c20                          2464
    rhs       c21                           548
    rhs       c22                          1726
    rhs       c23                          1038
    rhs       c24                          1279
    rhs       c25                          2650
    rhs       c26                          1472
    rhs       c27                          1980
    rhs       c28                          1419
    rhs       c29                          2102
    rhs       c30                           618
BOUNDS
 LI bnd       x1        0
 LI bnd       x2        0
 LI bnd       x3        0
 LI bnd       x4        0
 LI bnd       x5        0
 LI bnd       x6        0
 LI bnd       x7        0
 LI bnd       x8        0
 LI bnd       x9        0
 LI bnd       x10       0
 LI bnd       x11       0
 LI bnd       x12       0
 LI bnd       x13       0
 LI bnd       x14       0
 LI bnd       x15       0
 LI bnd       x16       0
 LI bnd       x17       0
 LI bnd       x18       0
 LI bnd       x19       0
 LI bnd       x20       0
 LI bnd       x21       0
 LI bnd       x22       0
 LI bnd       x23       0
 LI bnd       x24       0
 LI bnd       x25       0
 LI bnd       x26       0
 LI bnd       x27       0
 LI bnd       x28       0
 LI bnd       x29       0
 LI bnd       x30       0
 LI bnd       x31       0
 LI bnd       x32       0
 LI bnd       x33       0
 LI bnd       x34       0
 LI bnd       x35       0
 LI bnd       x36       0
 LI bnd       x37       0
 LI bnd       x38       0
 LI bnd       x39       0
 LI bnd       x40       0
 LI bnd       x41       0
 LI bnd       x42       0
 LI bnd       x43       0
 LI bnd       x44       0
 LI bnd       x45       0
 LI bnd       x46       0
 LI bnd       x47       0
 LI bnd       x48       0
 LI bnd       x49       0
 LI bnd       x50       0
 LI bnd       x51       0
 LI bnd       x52       0
 LI bnd       x53       0
 LI bnd       x54       0
 LI bnd       x55       0
 LI bnd       x56       0
 LI bnd       x57       0
 LI bnd       x58       0
 LI bnd       x59       0
 LI bnd       x60       0
ENDATA
